22:40:18 | INFO    | Run started | run_id: MR_MV_RD_case1_P12_R3_eps9999 | log file: C:\Users\Asus\Documents\GitHub\logistics-model2\internal-logistics-model2\results\MR_MV_RD\case1\MR_MV_RD_case1_P12_R3_eps9999_2026_05_04_22_40.log
22:40:18 | INFO    | Products loaded | sheet=case1 | rows=15
22:40:18 | INFO    | Data loaded | |N|=31 |Nw|=30 |K|=3 |R|=3 |P|=12 | U=30
22:40:18 | INFO    | Big-M | time=491.0 precedence=480.0 wait=465.0 load_lb=20 load_ub=20
22:40:18 | INFO    | Set parameter Username
22:40:18 | INFO    | Set parameter LicenseID to value 2811848
22:40:18 | INFO    | Academic license - for non-commercial use only - expires 2027-04-22
22:40:18 | INFO    | Objective set | primary: min route_duration | tie-break weight on wait: 0.001
22:40:18 | INFO    | Constraint (3) added | total_wait <= 9999
22:40:18 | INFO    | Constraints (4)-(9) added | route structure
22:40:18 | INFO    | Constraints (10)-(12) added | product assignment
22:40:18 | INFO    | Constraints (13)-(15) added | route timing
22:40:18 | INFO    | Constraints (16) added | time consistency
22:40:18 | INFO    | Constraints (17)-(19) added | service times
22:40:18 | INFO    | Constraints (20)-(22) added | precedence, route closure, waiting
22:40:19 | INFO    | Constraints (23)-(27) added | load propagation
22:40:19 | INFO    | Constraints (28)-(32) added | MTZ and route ordering
22:40:19 | INFO    | Set parameter TimeLimit to value 600
22:40:19 | INFO    | Set parameter MIPGap to value 0.01
22:40:19 | INFO    | Set parameter Presolve to value 2
22:40:19 | INFO    | Set parameter LogFile to value "C:\Users\Asus\Documents\GitHub\logistics-model2\internal-logistics-model2\results\MR_MV_RD\case1\result_MR_MV_RD_case1_P12_R3_eps9999_2026_05_04_22_40.log"
22:40:19 | INFO    | Solver configured | TimeLimit=600s | MIPGap=0.01 | gurobi_log=C:\Users\Asus\Documents\GitHub\logistics-model2\internal-logistics-model2\results\MR_MV_RD\case1\result_MR_MV_RD_case1_P12_R3_eps9999_2026_05_04_22_40.log
22:40:19 | INFO    | Optimization starting...
22:40:19 | INFO    | Gurobi Optimizer version 12.0.0 build v12.0.0rc1 (win64 - Windows 10.0 (19045.2))
22:40:19 | INFO    | 
22:40:19 | INFO    | CPU model: 12th Gen Intel(R) Core(TM) i7-12650H, instruction set [SSE2|AVX|AVX2]
22:40:19 | INFO    | Thread count: 10 physical cores, 16 logical processors, using up to 16 threads
22:40:19 | INFO    | 
22:40:19 | INFO    | Non-default parameters:
22:40:19 | INFO    | TimeLimit  600
22:40:19 | INFO    | MIPGap  0.01
22:40:19 | INFO    | Presolve  2
22:40:19 | INFO    | 
22:40:19 | INFO    | Optimize a model with 35017 rows, 10137 columns and 180354 nonzeros
22:40:19 | INFO    | Model fingerprint: 0x2f3d580a
22:40:19 | INFO    | Variable types: 1389 continuous, 8748 integer (8478 binary)
22:40:19 | INFO    | Coefficient statistics:
22:40:19 | INFO    |   Matrix range     [1e+00, 5e+02]
22:40:19 | INFO    |   Objective range  [1e-03, 1e+00]
22:40:19 | INFO    |   Bounds range     [1e+00, 3e+01]
22:40:19 | INFO    |   RHS range        [1e+00, 1e+04]
22:40:22 | INFO    | Presolve removed 12411 rows and 3609 columns
22:40:22 | INFO    | Presolve time: 2.62s
22:40:22 | INFO    | Presolved: 22606 rows, 6528 columns, 156496 nonzeros
22:40:22 | INFO    | Variable types: 903 continuous, 5625 integer (5409 binary)
22:40:22 | INFO    | Root relaxation presolve removed 69 rows and 0 columns
22:40:22 | INFO    | Root relaxation presolved: 22537 rows, 6588 columns, 156151 nonzeros
22:40:22 | INFO    | 
22:40:22 | INFO    | 
22:40:22 | INFO    | Root relaxation: objective 0.000000e+00, 992 iterations, 0.19 seconds (0.41 work units)
22:40:23 | INFO    | 
22:40:23 | INFO    |     Nodes    |    Current Node    |     Objective Bounds      |     Work
22:40:23 | INFO    |  Expl Unexpl |  Obj  Depth IntInf | Incumbent    BestBd   Gap | It/Node Time
22:40:23 | INFO    | 
22:40:23 | INFO    |      0     0    0.00000    0  173          -    0.00000      -     -    3s
22:40:23 | INFO    |      0     0    0.00000    0  243          -    0.00000      -     -    4s
22:40:23 | INFO    |      0     0    0.00000    0  206          -    0.00000      -     -    4s
22:40:26 | INFO    | H    0     0                     302.8960000    0.00000   100%     -    6s
22:40:26 | INFO    | H    0     0                     289.8780000    0.00000   100%     -    6s
22:40:26 | INFO    | H    0     0                     288.8730000    0.00000   100%     -    6s
22:40:26 | INFO    |      0     0    0.00000    0  175  288.87300    0.00000   100%     -    7s
22:40:26 | INFO    | H    0     0                     288.8500000    0.00000   100%     -    7s
22:40:26 | INFO    | H    0     0                     269.7640000    0.00000   100%     -    7s
22:40:26 | INFO    |      0     0    0.00000    0  183  269.76400    0.00000   100%     -    7s
22:40:26 | INFO    | H    0     0                     267.7560000    0.00000   100%     -    7s
22:40:28 | INFO    | H    0     0                     252.5250000    0.00900   100%     -    9s
22:40:28 | INFO    | H    0     0                     239.5180000    0.00900   100%     -    9s
22:40:28 | INFO    | H    0     0                     226.5000000    0.00900   100%     -    9s
22:40:28 | INFO    | H    0     0                     225.5070000    0.00900   100%     -    9s
22:40:28 | INFO    |      0     0    0.00900    0  140  225.50700    0.00900   100%     -    9s
22:40:28 | INFO    |      0     0    0.00900    0  159  225.50700    0.00900   100%     -    9s
22:40:29 | INFO    |      0     0    0.01650    0  229  225.50700    0.01650   100%     -   10s
22:40:29 | INFO    |      0     0    0.01800    0  204  225.50700    0.01800   100%     -   10s
22:40:30 | INFO    |      0     0    0.01800    0  212  225.50700    0.01800   100%     -   10s
22:40:30 | INFO    |      0     0    0.01800    0  228  225.50700    0.01800   100%     -   11s
22:40:31 | INFO    |      0     0    0.01800    0  209  225.50700    0.01800   100%     -   11s
22:40:31 | INFO    | H    0     0                     225.5050000    0.01800   100%     -   12s
22:40:31 | INFO    | H    0     0                     225.5000000    0.01800   100%     -   12s
22:40:31 | INFO    |      0     0    0.01800    0  197  225.50000    0.01800   100%     -   12s
22:40:35 | INFO    |      0     0    0.01800    0  138  225.50000    0.01800   100%     -   15s
22:40:35 | INFO    | H    0     0                     224.5000000    0.01800   100%     -   15s
22:40:35 | INFO    |      0     0    0.01800    0  150  224.50000    0.01800   100%     -   15s
22:40:35 | INFO    | H    0     0                     223.5000000    0.01800   100%     -   16s
22:40:37 | INFO    | H    0     0                     215.5740000    0.01800   100%     -   17s
22:40:37 | INFO    | H    0     0                     213.4460000    0.01800   100%     -   17s
22:40:37 | INFO    |      0     0    0.01800    0  144  213.44600    0.01800   100%     -   18s
22:40:37 | INFO    | H    0     0                     213.4400000    0.01800   100%     -   18s
22:40:37 | INFO    | H    0     0                     213.4240000    0.01800   100%     -   18s
22:40:37 | INFO    | H    0     0                     213.4120000    0.01800   100%     -   18s
22:40:38 | INFO    | H    0     0                     212.5970000    0.01800   100%     -   19s
22:40:38 | INFO    | H    0     0                     209.5280000    0.01800   100%     -   19s
22:40:38 | INFO    | H    0     0                     209.4180000    0.01800   100%     -   19s
22:40:38 | INFO    | H    0     0                     207.4370000    0.01800   100%     -   19s
22:40:38 | INFO    | H    0     0                     203.4150000    0.01800   100%     -   19s
22:40:38 | INFO    |      0     0    0.01800    0  163  203.41500    0.01800   100%     -   19s
22:40:39 | INFO    | H    0     0                     201.4390000    0.01851   100%     -   20s
22:40:39 | INFO    |      0     0    0.01851    0  263  201.43900    0.01851   100%     -   20s
22:40:40 | INFO    | H    0     0                     200.4420000    0.01861   100%     -   20s
22:40:40 | INFO    |      0     0    0.01861    0  326  200.44200    0.01861   100%     -   20s
22:40:41 | INFO    | H    0     0                     197.4110000    0.01935   100%     -   22s
22:40:41 | INFO    |      0     0    0.01935    0  371  197.41100    0.01935   100%     -   22s
22:40:41 | INFO    | H    0     0                     197.3950000    0.01935   100%     -   22s
22:40:42 | INFO    |      0     0    0.01935    0  350  197.39500    0.01935   100%     -   22s
22:40:43 | INFO    | H    0     0                     194.3890000    0.02011   100%     -   24s
22:40:43 | INFO    |      0     0    0.02011    0  429  194.38900    0.02011   100%     -   24s
22:40:43 | INFO    |      0     0    0.02018    0  412  194.38900    0.02018   100%     -   24s
22:40:44 | INFO    |      0     0    0.02045    0  473  194.38900    0.02045   100%     -   25s
22:40:44 | INFO    |      0     0    0.02045    0  459  194.38900    0.02045   100%     -   25s
22:40:46 | INFO    |      0     0    0.02128    0  544  194.38900    0.02128   100%     -   26s
22:40:46 | INFO    |      0     0    0.02138    0  530  194.38900    0.02138   100%     -   27s
22:40:48 | INFO    |      0     0    0.02138    0  493  194.38900    0.02138   100%     -   29s
22:40:48 | INFO    |      0     0    0.02138    0  469  194.38900    0.02138   100%     -   29s
22:40:49 | INFO    |      0     0    0.02138    0  535  194.38900    0.02138   100%     -   30s
22:40:50 | INFO    |      0     0    0.02170    0  513  194.38900    0.02170   100%     -   30s
22:40:50 | INFO    |      0     0    0.02170    0  535  194.38900    0.02170   100%     -   31s
22:40:50 | INFO    |      0     0    0.02170    0  509  194.38900    0.02170   100%     -   31s
22:40:52 | INFO    | H    0     0                     192.3840000    0.02170   100%     -   33s
22:40:53 | INFO    |      0     0    0.02170    0  322  192.38400    0.02170   100%     -   33s
22:40:53 | INFO    |      0     0    0.02174    0  350  192.38400    0.02174   100%     -   33s
22:40:53 | INFO    |      0     0    0.02174    0  373  192.38400    0.02174   100%     -   34s
22:40:54 | INFO    |      0     0    0.02174    0  362  192.38400    0.02174   100%     -   34s
22:40:55 | INFO    |      0     0    0.02174    0  357  192.38400    0.02174   100%     -   36s
22:40:55 | INFO    | H    0     0                     191.4080000    0.02174   100%     -   36s
22:40:56 | INFO    |      0     0    0.02174    0  339  191.40800    0.02174   100%     -   36s
22:40:58 | INFO    |      0     2    0.02200    0  339  191.40800    0.02200   100%     -   38s
22:40:59 | INFO    |     25    45    0.02201    5  416  191.40800    0.02200   100%   576   40s
22:41:03 | INFO    | H  480   459                     190.4310000    0.02200   100%   156   43s
22:41:04 | INFO    |    742   674    0.02754   14  273  190.43100    0.02200   100%   120   45s
22:41:09 | INFO    |   1534  1263    0.03198   35  282  190.43100    0.02200   100%   115   50s
22:41:14 | INFO    |   1673  1422    0.05283   52  133  190.43100    0.02200   100%   113   55s
22:41:16 | INFO    | H 1789  1454                     188.4190000    0.02200   100%   109   57s
22:41:22 | INFO    |   1926  1542    0.02556   16  339  188.41900    0.02200   100%   108   63s
22:41:26 | INFO    |   1928  1543    0.02766   18  139  188.41900    0.02200   100%   108   66s
22:41:30 | INFO    |   1929  1544    0.02585   22  144  188.41900    0.02200   100%   108   71s
22:41:40 | INFO    |   1931  1545    0.02430   10  304  188.41900    0.02260   100%   108   80s
22:41:58 | INFO    |   1933  1547    0.03070   13  247  188.41900    0.03070   100%   108   99s
22:41:59 | INFO    |   1934  1547  153.74240   57  290  188.41900    0.03070   100%   108  100s
22:42:04 | INFO    |   1935  1548    0.03434    4  168  188.41900    0.03434   100%   108  105s
22:42:09 | INFO    |   1937  1549    0.05313   23  185  188.41900    0.03435   100%   108  110s
22:42:17 | INFO    |   1939  1551    0.06900   28  147  188.41900    0.03480   100%   107  118s
22:42:22 | INFO    |   1941  1552    0.03554   35  171  188.41900    0.03554   100%   107  123s
22:42:30 | INFO    | H 1942  1475                     184.3870000    0.03572   100%   107  131s
22:42:34 | INFO    | H 1943  1401                     184.3790000    0.03572   100%   107  134s
22:42:37 | INFO    |   1945  1403    0.05419   37  403  184.37900    0.03583   100%   107  138s
22:42:39 | INFO    |   1946  1403    0.03583   13  301  184.37900    0.03583   100%   107  140s
22:42:50 | INFO    |   1947  1404   70.09651   43  112  184.37900    0.03583   100%   107  150s
22:42:50 | INFO    | H 1947  1333                     183.4090000    0.03583   100%   107  151s
22:42:57 | INFO    |   1949  1334    0.03596   15  185  183.40900    0.03596   100%   107  158s
22:42:59 | INFO    | H 1949  1267                     183.3870000    0.03597   100%   107  159s
22:43:01 | INFO    |   1950  1268    0.07588   45  394  183.38700    0.03597   100%   107  162s
22:43:12 | INFO    | H 1950  1204                     179.3200000    0.03600   100%   107  172s
22:43:13 | INFO    | H 1951  1144                     176.3200000    0.03600   100%   107  174s
22:43:13 | INFO    | H 1951  1087                     176.3110000    0.03600   100%   107  174s
22:43:13 | INFO    | H 1951  1032                     174.3100000    0.03600   100%   107  174s
22:43:19 | INFO    |   1953  1033    0.03600   21  107  174.31000    0.03600   100%   107  180s
22:43:27 | INFO    |   1955  1034    0.03600    8  143  174.31000    0.03600   100%   107  187s
22:43:35 | INFO    |   1957  1036   71.15642   69  121  174.31000    0.03600   100%   106  196s
22:43:43 | INFO    |   1959  1037   77.22506   69  161  174.31000    0.03600   100%   106  203s
22:43:48 | INFO    |   1961  1038    0.06612   41  138  174.31000    0.03600   100%   106  208s
22:43:53 | INFO    |   1963  1040    0.07627   25  143  174.31000    0.03600   100%   106  213s
22:43:59 | INFO    |   1966  1043    0.03600   12  339  174.31000    0.03600   100%   287  219s
22:44:02 | INFO    |   1968  1044    0.11971   28  149  174.31000    0.03600   100%   287  222s
22:44:07 | INFO    |   1969  1045    0.03600   20  160  174.31000    0.03600   100%   287  227s
22:44:15 | INFO    |   1971  1046    0.03600   10  139  174.31000    0.03600   100%   287  235s
22:44:23 | INFO    |   1973  1048    0.05550   32  187  174.31000    0.03600   100%   286  243s
22:44:25 | INFO    |   1974  1048   71.15642   72  408  174.31000    0.03601   100%   286  245s
22:44:32 | INFO    |   1975  1049   82.23073   60  310  174.31000    0.03667   100%   286  253s
22:44:35 | INFO    |   1976  1050    0.03711   20  454  174.31000    0.03711   100%   286  256s
22:44:44 | INFO    |   1977  1050   42.08300   47  336  174.31000    0.03765   100%   286  265s
22:44:55 | INFO    | H 1978   998                     173.3070000    0.03771   100%   286  276s
22:45:00 | INFO    |   1980   999    0.06326   38  562  173.30700    0.03779   100%   285  281s
22:45:11 | INFO    |   1981  1000    0.03799   11  357  173.30700    0.03799   100%   285  291s
22:45:25 | INFO    |   1983  1001   47.18600   59  412  173.30700    0.03810   100%   285  305s
22:45:32 | INFO    |   1984  1002    0.03815   23  540  173.30700    0.03815   100%   285  312s
22:45:42 | INFO    |   1985  1003    0.03831   11  674  173.30700    0.03831   100%   285  323s
22:45:46 | INFO    |   1986  1003    0.03835   40  707  173.30700    0.03835   100%   284  327s
22:46:01 | INFO    |   1987  1004    0.09742   58  689  173.30700    0.03858   100%   284  341s
22:46:05 | INFO    |   1988  1005    0.07730   25  810  173.30700    0.03864   100%   284  346s
22:46:15 | INFO    |   1989  1005    0.03914    4  883  173.30700    0.03914   100%   284  355s
22:46:25 | INFO    |   1991  1007    0.04209   23  980  173.30700    0.04012   100%   284  365s
22:46:30 | INFO    |   1992  1007  120.18986   55  986  173.30700    0.04024   100%   284  370s
22:46:35 | INFO    |   1993  1008    0.05427   26  990  173.30700    0.04049   100%   283  376s
22:46:55 | INFO    |   1995  1009   70.09300   42  998  173.30700    0.04080   100%   283  395s
22:47:03 | INFO    |   1996  1010    0.04087   20 1019  173.30700    0.04087   100%   283  403s
22:47:08 | INFO    |   1997  1011    0.04098    8 1030  173.30700    0.04098   100%   283  408s
22:47:12 | INFO    |   1998  1011   47.18355   51 1054  173.30700    0.04104   100%   283  413s
22:47:19 | INFO    |   1999  1012   77.14900   54 1123  173.30700    0.04130   100%   283  419s
22:47:26 | INFO    |   2000  1013  145.29700   80 1189  173.30700    0.04138   100%   282  427s
22:47:33 | INFO    |   2001  1013    0.08010   22 1197  173.30700    0.04151   100%   282  434s
22:47:38 | INFO    |   2002  1014   52.07694   39 1209  173.30700    0.04156   100%   282  439s
22:47:44 | INFO    |   2003  1015    0.04162   29 1172  173.30700    0.04162   100%   282  445s
22:47:56 | INFO    |   2005  1016   51.12200   57 1148  173.30700    0.04172   100%   282  456s
22:48:02 | INFO    |   2006  1017  139.21500   55 1200  173.30700    0.04175   100%   282  462s
22:48:08 | INFO    |   2007  1017    0.04178   26 1182  173.30700    0.04178   100%   282  469s
22:48:14 | INFO    |   2008  1018    0.07788   32 1199  173.30700    0.04179   100%   281  474s
22:48:21 | INFO    | H 2008   966                     173.3000000    0.04182   100%   281  481s
22:48:21 | INFO    | H 2008   917                     169.2840000    0.04182   100%   281  481s
22:48:27 | INFO    |   2010   918   64.07000   51 1232  169.28400    0.04183   100%   281  488s
22:48:33 | INFO    |   2011   919    0.05927   38 1224  169.28400    0.04186   100%   281  494s
22:48:38 | INFO    |   2012   920    0.04186    9 1225  169.28400    0.04186   100%   281  499s
22:48:45 | INFO    |   2013   920   44.12764   45 1256  169.28400    0.04188   100%   281  506s
22:48:51 | INFO    |   2014   921    0.09838   46 1237  169.28400    0.04189   100%   281  512s
22:48:56 | INFO    |   2015   922    0.04190   17 1190  169.28400    0.04190   100%   280  517s
22:49:03 | INFO    |   2016   922    0.04191   13 1200  169.28400    0.04191   100%   280  524s
22:49:10 | INFO    |   2017   923    0.09653   30 1204  169.28400    0.04193   100%   280  531s
22:49:15 | INFO    |   2018   924    0.04193   15 1261  169.28400    0.04193   100%   280  535s
22:49:21 | INFO    |   2019   924    0.04195   14 1256  169.28400    0.04195   100%   280  542s
22:49:27 | INFO    |   2020   925    0.04195   10 1263  169.28400    0.04195   100%   280  547s
22:49:33 | INFO    |   2021   926    4.26893   41 1256  169.28400    0.04196   100%   280  554s
22:49:40 | INFO    |   2022   926    0.04897   25 1291  169.28400    0.04196   100%   279  561s
22:49:46 | INFO    |   2023   927    0.04197   11 1255  169.28400    0.04197   100%   279  567s
22:49:52 | INFO    |   2024   928    0.04198   17 1268  169.28400    0.04198   100%   279  573s
22:50:00 | INFO    |   2025   928   47.12780   58 1267  169.28400    0.04198   100%   279  581s
22:50:06 | INFO    |   2026   929    0.04199   16 1272  169.28400    0.04199   100%   279  587s
22:50:12 | INFO    |   2027   930    0.04199   26 1280  169.28400    0.04199   100%   279  593s
22:50:17 | INFO    |   2030   933   77.16700   60  339  169.28400    0.04199   100%   506  598s
22:50:19 | INFO    | 
22:50:19 | INFO    | Explored 2031 nodes (1154116 simplex iterations) in 600.02 seconds (813.84 work units)
22:50:19 | INFO    | Thread count was 16 (of 16 available processors)
22:50:19 | INFO    | 
22:50:19 | INFO    | Solution count 10: 169.284 173.3 173.307 ... 184.379
22:50:19 | INFO    | 
22:50:19 | INFO    | Time limit reached
22:50:19 | INFO    | Best objective 1.692840000000e+02, best bound 4.198926117486e-02, gap 99.9752%
22:50:19 | INFO    | Solution found | route_duration=169.00 | total_wait=284.00
22:50:19 | INFO    | Objective=169.28 | runtime=600.14s | MIP Gap=99.98%
22:50:19 | INFO    | Generating Excel output | C:\Users\Asus\Documents\GitHub\logistics-model2\internal-logistics-model2\results\MR_MV_RD\case1\result_MR_MV_RD_case1_P12_R3_eps9999_2026_05_04_22_40.xlsx
22:50:19 | INFO    | Excel output written | 12 sheets | C:\Users\Asus\Documents\GitHub\logistics-model2\internal-logistics-model2\results\MR_MV_RD\case1\result_MR_MV_RD_case1_P12_R3_eps9999_2026_05_04_22_40.xlsx
22:50:19 | INFO    | Master Pareto updated | 23 total rows | C:\Users\Asus\Documents\GitHub\logistics-model2\internal-logistics-model2\results\master_pareto.xlsx
22:50:19 | INFO    | Run complete | run_id=MR_MV_RD_case1_P12_R3_eps9999
